DIMACS_lns/graph-1000-324.col
p edge 1000 1825
e 2 563
e 2 598
e 2 582
e 2 39
e 2 466
e 3 816
e 3 508
e 3 34
e 3 413
e 4 237
e 4 871
e 4 180
e 4 37
e 4 837
e 4 557
e 5 490
e 5 928
e 5 793
e 5 833
e 5 530
e 5 601
e 5 569
e 5 71
e 5 751
e 6 413
e 6 402
e 6 348
e 6 1000
e 6 510
e 7 194
e 7 97
e 7 256
e 7 699
e 8 739
e 8 497
e 8 254
e 8 673
e 8 867
e 8 201
e 8 853
e 9 340
e 9 26
e 9 745
e 9 75
e 9 115
e 9 870
e 9 333
e 9 584
e 10 957
e 10 934
e 10 437
e 10 182
e 10 882
e 11 380
e 11 872
e 11 552
e 11 237
e 12 361
e 12 455
e 12 282
e 12 993
e 12 621
e 13 469
e 13 824
e 13 394
e 13 775
e 13 456
e 14 423
e 14 414
e 14 311
e 14 523
e 14 126
e 14 534
e 14 565
e 14 139
e 16 855
e 16 83
e 16 792
e 16 26
e 17 994
e 17 363
e 17 495
e 17 59
e 17 548
e 17 726
e 17 792
e 18 599
e 18 462
e 18 389
e 18 54
e 18 673
e 18 434
e 19 778
e 19 465
e 19 560
e 19 836
e 19 911
e 22 432
e 22 577
e 22 855
e 22 568
e 22 538
e 22 957
e 22 406
e 23 321
e 23 699
e 23 553
e 24 51
e 24 788
e 24 163
e 25 607
e 25 458
e 25 213
e 25 311
e 25 472
e 26 740
e 26 955
e 27 219
e 27 220
e 27 242
e 29 329
e 29 530
e 29 650
e 29 830
e 29 43
e 30 686
e 30 149
e 30 316
e 31 534
e 31 479
e 31 149
e 33 962
e 33 725
e 33 735
e 33 739
e 34 666
e 34 974
e 34 962
e 37 373
e 37 330
e 37 939
e 37 900
e 37 260
e 37 941
e 37 144
e 37 731
e 38 237
e 38 385
e 38 664
e 38 690
e 38 994
e 39 716
e 39 435
e 39 112
e 42 651
e 42 852
e 42 635
e 43 822
e 43 722
e 43 346
e 43 548
e 43 522
e 43 422
e 43 115
e 43 928
e 43 483
e 43 426
e 44 246
e 44 163
e 44 311
e 44 901
e 44 333
e 44 720
e 45 548
e 45 308
e 45 594
e 45 348
e 45 205
e 46 207
e 46 903
e 46 96
e 46 815
e 46 270
e 46 368
e 48 767
e 48 938
e 48 802
e 48 553
e 48 918
e 48 414
e 49 356
e 49 564
e 49 487
e 49 847
e 49 395
e 49 397
e 49 927
e 49 720
e 50 350
e 50 150
e 50 506
e 50 723
e 50 806
e 51 144
e 51 437
e 51 265
e 52 348
e 52 818
e 52 609
e 52 91
e 52 328
e 54 563
e 54 146
e 54 942
e 54 764
e 54 802
e 54 81
e 54 268
e 54 684
e 54 64
e 54 241
e 56 467
e 56 182
e 56 942
e 56 92
e 56 617
e 56 485
e 57 663
e 57 853
e 57 319
e 57 202
e 58 497
e 58 742
e 58 430
e 58 181
e 58 567
e 59 561
e 59 930
e 59 624
e 59 454
e 59 191
e 60 972
e 60 346
e 60 371
e 60 745
e 61 68
e 61 240
e 61 892
e 63 167
e 63 938
e 63 993
e 64 769
e 64 845
e 64 902
e 66 183
e 66 855
e 66 207
e 66 254
e 66 394
e 66 435
e 67 445
e 67 342
e 67 81
e 68 895
e 68 571
e 68 197
e 68 91
e 68 200
e 68 763
e 69 427
e 69 920
e 69 207
e 69 270
e 70 787
e 70 975
e 70 610
e 70 569
e 71 787
e 71 164
e 72 668
e 72 871
e 72 281
e 72 551
e 73 241
e 73 855
e 73 780
e 74 83
e 74 421
e 74 755
e 75 560
e 75 240
e 75 991
e 77 319
e 77 336
e 77 364
e 77 593
e 78 944
e 78 835
e 78 754
e 78 542
e 78 299
e 79 683
e 79 611
e 79 867
e 79 350
e 81 831
e 81 305
e 81 398
e 81 355
e 82 753
e 82 400
e 82 366
e 83 386
e 83 504
e 83 180
e 84 181
e 84 818
e 84 736
e 85 152
e 85 802
e 85 560
e 85 761
e 85 841
e 85 205
e 87 474
e 87 604
e 87 914
e 87 647
e 88 399
e 88 755
e 88 119
e 89 916
e 89 281
e 89 346
e 89 389
e 89 906
e 89 578
e 89 552
e 90 390
e 90 529
e 90 436
e 90 806
e 90 925
e 90 621
e 91 985
e 91 720
e 91 841
e 92 798
e 92 529
e 92 783
e 93 676
e 93 297
e 93 995
e 95 171
e 95 763
e 95 133
e 95 441
e 95 941
e 96 402
e 96 825
e 96 220
e 97 228
e 97 789
e 97 642
e 97 888
e 97 357
e 97 710
e 97 462
e 97 240
e 98 456
e 98 879
e 98 623
e 98 208
e 98 824
e 99 640
e 99 605
e 99 340
e 99 141
e 99 256
e 99 137
e 99 789
e 99 683
e 99 429
e 100 193
e 100 571
e 100 525
e 101 329
e 101 470
e 101 336
e 101 465
e 101 365
e 101 709
e 102 473
e 102 209
e 102 414
e 103 894
e 103 988
e 103 346
e 104 143
e 104 180
e 104 747
e 104 329
e 105 996
e 105 926
e 105 856
e 105 463
e 106 957
e 106 510
e 106 816
e 106 780
e 107 250
e 107 646
e 107 753
e 109 328
e 109 759
e 109 185
e 109 673
e 109 382
e 109 516
e 111 735
e 111 390
e 111 563
e 111 806
e 112 865
e 112 139
e 112 489
e 115 278
e 115 940
e 115 557
e 115 949
e 115 501
e 115 240
e 116 138
e 116 409
e 116 189
e 116 309
e 117 582
e 117 587
e 117 798
e 117 313
e 118 994
e 118 296
e 118 998
e 119 735
e 119 830
e 119 458
e 119 723
e 119 652
e 121 507
e 121 506
e 121 388
e 121 948
e 121 516
e 122 136
e 122 715
e 122 763
e 122 193
e 122 464
e 124 181
e 124 459
e 124 868
e 124 874
e 126 253
e 126 464
e 126 907
e 126 912
e 126 857
e 128 539
e 128 137
e 128 185
e 128 306
e 128 147
e 132 523
e 132 555
e 132 416
e 132 975
e 132 699
e 132 260
e 133 582
e 133 139
e 133 630
e 133 901
e 133 872
e 133 463
e 134 637
e 134 699
e 134 705
e 134 630
e 134 724
e 134 144
e 135 580
e 135 940
e 135 635
e 136 940
e 136 742
e 136 371
e 137 499
e 138 288
e 138 866
e 138 175
e 138 626
e 138 443
e 139 576
e 141 615
e 141 356
e 141 297
e 141 599
e 141 410
e 141 702
e 142 491
e 142 755
e 142 968
e 143 464
e 143 558
e 144 710
e 144 281
e 144 378
e 144 872
e 144 613
e 144 709
e 144 715
e 144 889
e 145 580
e 145 414
e 145 820
e 145 751
e 146 255
e 146 581
e 146 815
e 146 511
e 146 687
e 146 402
e 146 334
e 147 308
e 147 680
e 147 430
e 147 878
e 149 391
e 150 695
e 150 836
e 150 619
e 150 880
e 150 177
e 152 593
e 152 568
e 152 406
e 152 354
e 152 178
e 152 422
e 156 475
e 156 612
e 156 929
e 156 235
e 157 957
e 157 321
e 157 829
e 157 557
e 158 258
e 158 690
e 158 928
e 159 902
e 159 169
e 159 578
e 159 927
e 159 684
e 160 232
e 160 761
e 160 923
e 161 307
e 161 868
e 161 760
e 161 500
e 161 386
e 161 733
e 161 661
e 162 355
e 162 551
e 162 930
e 163 595
e 163 858
e 163 377
e 163 483
e 164 167
e 164 463
e 164 518
e 164 984
e 164 699
e 166 764
e 166 321
e 166 657
e 166 702
e 166 477
e 167 171
e 167 810
e 167 742
e 167 841
e 169 676
e 169 577
e 169 871
e 169 484
e 169 768
e 170 988
e 170 879
e 170 983
e 170 609
e 170 986
e 171 730
e 171 390
e 171 414
e 171 834
e 171 578
e 171 787
e 171 966
e 174 770
e 174 864
e 174 520
e 174 540
e 175 696
e 175 256
e 176 334
e 176 878
e 176 661
e 177 514
e 177 645
e 177 183
e 178 240
e 178 754
e 178 436
e 179 300
e 179 756
e 179 985
e 179 682
e 179 377
e 180 794
e 180 432
e 180 374
e 181 817
e 181 806
e 181 493
e 181 942
e 181 557
e 181 791
e 182 871
e 182 968
e 182 275
e 183 736
e 183 422
e 183 539
e 183 593
e 184 295
e 184 628
e 184 833
e 184 743
e 184 239
e 185 909
e 185 793
e 185 580
e 185 848
e 188 753
e 188 379
e 188 410
e 189 419
e 189 761
e 189 404
e 190 793
e 190 708
e 190 777
e 191 446
e 191 371
e 192 424
e 192 874
e 192 293
e 193 239
e 193 487
e 193 512
e 193 360
e 193 835
e 193 987
e 193 279
e 193 435
e 194 938
e 194 304
e 194 967
e 194 241
e 195 229
e 195 667
e 195 780
e 197 547
e 197 778
e 197 901
e 198 606
e 198 721
e 198 616
e 199 743
e 199 201
e 199 318
e 200 963
e 200 502
e 201 723
e 201 292
e 201 686
e 201 279
e 201 366
e 201 802
e 202 248
e 202 693
e 202 975
e 204 698
e 204 745
e 204 725
e 204 949
e 205 463
e 205 675
e 205 278
e 205 937
e 205 787
e 206 440
e 206 605
e 206 882
e 206 837
e 206 336
e 207 529
e 208 214
e 208 264
e 209 925
e 209 388
e 209 261
e 209 250
e 210 520
e 210 515
e 210 664
e 210 986
e 213 895
e 213 753
e 213 219
e 213 710
e 213 645
e 213 469
e 213 994
e 214 618
e 214 230
e 214 634
e 214 955
e 217 779
e 217 999
e 217 898
e 217 514
e 218 983
e 218 254
e 218 766
e 219 487
e 219 895
e 219 828
e 220 270
e 221 615
e 221 720
e 221 946
e 221 561
e 223 733
e 223 967
e 223 998
e 224 662
e 224 618
e 224 389
e 224 282
e 224 438
e 224 442
e 228 977
e 228 325
e 228 994
e 228 569
e 229 308
e 229 385
e 230 634
e 230 699
e 232 565
e 232 893
e 232 810
e 234 766
e 234 873
e 234 427
e 235 398
e 235 657
e 237 881
e 237 265
e 237 506
e 237 295
e 238 386
e 238 513
e 238 862
e 239 720
e 239 388
e 240 260
e 240 962
e 240 717
e 240 799
e 241 654
e 241 467
e 241 828
e 241 651
e 241 775
e 241 548
e 242 386
e 242 776
e 242 334
e 243 576
e 243 418
e 243 330
e 246 824
e 246 261
e 247 471
e 247 483
e 247 414
e 248 391
e 248 834
e 248 578
e 248 394
e 249 984
e 249 885
e 249 329
e 249 624
e 249 837
e 250 605
e 250 510
e 250 991
e 253 352
e 253 638
e 254 656
e 254 257
e 255 365
e 255 882
e 255 743
e 257 754
e 257 798
e 257 277
e 257 512
e 258 551
e 258 571
e 258 725
e 258 541
e 258 967
e 258 504
e 259 701
e 259 971
e 259 481
e 260 416
e 260 559
e 261 366
e 261 934
e 261 935
e 261 564
e 261 780
e 261 977
e 262 878
e 262 888
e 262 598
e 262 720
e 263 995
e 263 400
e 263 368
e 263 397
e 264 762
e 264 423
e 264 302
e 265 540
e 265 477
e 265 820
e 265 272
e 267 910
e 267 700
e 267 398
e 268 454
e 268 766
e 268 724
e 270 684
e 270 867
e 270 642
e 271 711
e 271 940
e 271 812
e 271 315
e 271 753
e 271 606
e 272 339
e 272 556
e 274 293
e 274 743
e 274 498
e 274 305
e 275 569
e 275 923
e 275 573
e 277 430
e 277 365
e 277 432
e 277 496
e 277 765
e 277 795
e 277 627
e 277 318
e 278 662
e 278 836
e 278 799
e 279 490
e 279 972
e 279 882
e 279 597
e 279 784
e 281 603
e 281 375
e 281 760
e 282 831
e 282 332
e 287 504
e 287 428
e 287 914
e 287 514
e 288 373
e 288 328
e 288 385
e 288 542
e 288 452
e 288 361
e 288 349
e 290 509
e 290 350
e 290 399
e 292 293
e 292 759
e 292 417
e 292 626
e 293 366
e 293 504
e 293 684
e 295 368
e 296 908
e 296 793
e 296 440
e 296 547
e 297 664
e 297 773
e 299 441
e 299 502
e 300 491
e 300 938
e 302 888
e 302 337
e 302 379
e 302 390
e 304 490
e 304 871
e 305 499
e 305 307
e 305 683
e 306 374
e 306 825
e 306 604
e 307 581
e 307 919
e 307 627
e 307 432
e 307 565
e 308 854
e 308 471
e 308 862
e 308 626
e 309 866
e 309 520
e 309 744
e 309 423
e 309 745
e 309 436
e 310 513
e 310 997
e 310 967
e 310 598
e 310 525
e 311 350
e 311 434
e 311 548
e 311 772
e 313 585
e 313 785
e 313 840
e 313 968
e 314 907
e 314 508
e 314 735
e 314 687
e 315 647
e 315 650
e 316 422
e 316 700
e 316 593
e 318 385
e 319 906
e 319 641
e 319 482
e 323 604
e 323 844
e 323 923
e 324 821
e 324 465
e 324 929
e 325 838
e 325 735
e 325 850
e 325 355
e 328 654
e 328 828
e 328 498
e 329 559
e 330 590
e 330 783
e 332 840
e 332 456
e 333 667
e 333 983
e 333 501
e 334 467
e 334 404
e 334 594
e 334 994
e 334 370
e 334 634
e 336 980
e 336 496
e 336 690
e 336 850
e 337 466
e 337 717
e 338 471
e 338 503
e 338 866
e 338 778
e 339 866
e 339 999
e 340 364
e 340 605
e 340 898
e 340 772
e 342 932
e 342 927
e 344 944
e 344 937
e 344 557
e 346 553
e 346 729
e 346 948
e 346 407
e 346 623
e 346 664
e 346 787
e 346 829
e 346 856
e 348 714
e 348 668
e 349 914
e 349 909
e 349 743
e 350 744
e 350 449
e 350 826
e 352 499
e 352 509
e 354 864
e 354 932
e 355 915
e 355 588
e 356 684
e 356 799
e 356 630
e 357 898
e 357 750
e 357 929
e 360 775
e 360 724
e 360 511
e 361 455
e 361 372
e 361 842
e 361 993
e 361 493
e 363 575
e 363 618
e 363 495
e 364 926
e 364 676
e 364 845
e 365 498
e 365 704
e 366 871
e 368 461
e 368 966
e 369 618
e 369 473
e 369 711
e 369 934
e 369 780
e 370 799
e 370 417
e 372 561
e 372 773
e 372 646
e 372 820
e 373 756
e 373 958
e 373 974
e 374 581
e 374 399
e 375 489
e 375 582
e 375 864
e 375 848
e 377 560
e 377 977
e 377 711
e 377 661
e 378 998
e 378 410
e 378 428
e 379 912
e 379 656
e 380 755
e 380 502
e 380 452
e 380 424
e 382 795
e 382 709
e 382 952
e 385 836
e 385 775
e 386 997
e 386 605
e 386 672
e 388 672
e 388 879
e 389 874
e 389 914
e 390 923
e 390 695
e 390 931
e 391 607
e 391 586
e 391 667
e 393 501
e 393 974
e 393 619
e 395 842
e 395 811
e 397 523
e 400 599
e 400 442
e 402 725
e 402 452
e 402 739
e 404 417
e 404 755
e 404 895
e 404 836
e 404 593
e 406 663
e 406 559
e 406 908
e 406 918
e 407 584
e 407 692
e 407 426
e 407 509
e 407 447
e 407 706
e 408 942
e 408 744
e 408 638
e 408 991
e 409 959
e 409 975
e 409 756
e 410 424
e 410 650
e 410 923
e 413 484
e 413 720
e 414 689
e 414 548
e 414 693
e 416 611
e 417 512
e 417 777
e 417 701
e 417 775
e 418 474
e 418 628
e 419 452
e 419 704
e 419 428
e 421 645
e 421 446
e 422 882
e 422 656
e 422 697
e 422 588
e 423 767
e 423 952
e 423 867
e 424 626
e 424 529
e 426 637
e 427 972
e 427 759
e 427 737
e 428 770
e 428 792
e 428 511
e 429 845
e 429 458
e 429 949
e 429 726
e 429 554
e 430 889
e 432 542
e 434 646
e 434 783
e 434 985
e 434 822
e 435 923
e 435 520
e 435 722
e 435 813
e 436 893
e 436 608
e 437 781
e 437 525
e 437 637
e 438 573
e 438 916
e 438 866
e 438 910
e 440 995
e 440 729
e 440 554
e 441 504
e 441 949
e 441 806
e 442 604
e 442 443
e 442 831
e 442 703
e 443 917
e 443 670
e 445 500
e 445 664
e 445 640
e 445 652
e 445 988
e 446 680
e 446 455
e 447 716
e 447 559
e 447 966
e 447 657
e 447 939
e 447 475
e 447 853
e 448 831
e 448 847
e 448 457
e 448 994
e 448 806
e 449 672
e 449 569
e 449 916
e 449 605
e 450 637
e 450 550
e 450 676
e 450 553
e 450 905
e 450 592
e 452 825
e 452 916
e 452 498
e 452 932
e 452 584
e 452 647
e 452 919
e 452 903
e 452 823
e 454 618
e 454 775
e 454 793
e 455 880
e 455 898
e 456 637
e 456 671
e 457 959
e 457 547
e 459 623
e 459 519
e 461 470
e 461 548
e 462 999
e 462 720
e 462 754
e 464 477
e 464 692
e 466 792
e 466 697
e 466 971
e 467 924
e 467 554
e 467 505
e 467 930
e 467 971
e 469 825
e 469 642
e 469 670
e 469 838
e 469 864
e 469 577
e 470 856
e 470 968
e 470 560
e 471 724
e 471 788
e 471 474
e 472 715
e 472 756
e 473 957
e 473 744
e 473 475
e 473 659
e 473 698
e 474 854
e 474 481
e 477 856
e 479 802
e 479 968
e 479 509
e 479 500
e 479 735
e 481 993
e 482 840
e 482 842
e 483 771
e 483 736
e 484 813
e 484 926
e 485 513
e 485 642
e 487 1000
e 487 606
e 489 553
e 489 692
e 490 669
e 490 853
e 491 787
e 491 980
e 493 586
e 494 723
e 494 842
e 494 942
e 494 721
e 495 801
e 496 730
e 497 755
e 497 650
e 498 510
e 498 744
e 499 941
e 502 622
e 503 599
e 503 813
e 503 613
e 503 823
e 505 798
e 505 617
e 505 963
e 505 867
e 505 693
e 505 902
e 506 675
e 506 695
e 506 664
e 507 791
e 507 722
e 508 812
e 508 929
e 509 627
e 509 990
e 509 904
e 509 900
e 510 618
e 510 785
e 511 771
e 511 581
e 511 770
e 511 816
e 511 667
e 511 962
e 511 841
e 512 910
e 512 997
e 512 931
e 513 708
e 514 743
e 514 1000
e 514 792
e 515 710
e 515 558
e 516 822
e 516 647
e 516 980
e 516 594
e 518 671
e 518 950
e 518 857
e 519 802
e 519 679
e 522 858
e 522 743
e 525 854
e 525 993
e 528 837
e 528 795
e 528 781
e 528 695
e 528 903
e 528 641
e 528 821
e 528 628
e 528 744
e 529 813
e 529 938
e 530 763
e 534 792
e 534 920
e 538 837
e 538 775
e 539 990
e 539 781
e 540 618
e 540 649
e 540 823
e 541 703
e 541 822
e 541 871
e 547 571
e 550 954
e 550 937
e 552 949
e 552 815
e 553 630
e 553 829
e 553 932
e 554 706
e 554 622
e 554 788
e 554 652
e 555 954
e 555 865
e 556 950
e 556 801
e 557 754
e 558 937
e 558 854
e 559 642
e 559 777
e 559 907
e 560 792
e 560 967
e 560 831
e 560 606
e 561 888
e 561 882
e 563 969
e 563 714
e 563 865
e 564 581
e 567 770
e 567 799
e 567 800
e 568 817
e 569 714
e 573 752
e 573 703
e 573 750
e 575 731
e 575 912
e 576 763
e 577 720
e 578 983
e 578 754
e 578 642
e 578 679
e 579 845
e 579 942
e 579 834
e 579 619
e 580 945
e 581 616
e 581 866
e 585 980
e 585 910
e 585 676
e 586 622
e 587 673
e 587 615
e 588 971
e 590 984
e 590 939
e 590 598
e 592 789
e 592 663
e 593 868
e 594 881
e 595 903
e 595 914
e 597 686
e 597 726
e 597 666
e 597 899
e 598 601
e 598 980
e 598 968
e 599 659
e 599 768
e 601 609
e 603 719
e 603 736
e 604 610
e 607 838
e 607 963
e 608 735
e 608 779
e 609 800
e 609 610
e 610 736
e 610 788
e 611 744
e 612 645
e 612 719
e 612 879
e 612 747
e 613 763
e 616 880
e 617 737
e 618 835
e 618 950
e 618 776
e 618 915
e 619 659
e 619 850
e 621 652
e 621 917
e 621 729
e 621 811
e 622 881
e 622 763
e 622 776
e 622 650
e 623 906
e 624 755
e 626 637
e 626 995
e 628 651
e 628 779
e 628 854
e 630 852
e 630 878
e 630 975
e 630 796
e 631 759
e 631 850
e 631 840
e 635 740
e 637 652
e 638 865
e 640 666
e 640 894
e 641 990
e 641 672
e 641 771
e 642 901
e 642 739
e 642 775
e 642 931
e 645 769
e 646 870
e 647 923
e 647 998
e 647 737
e 649 821
e 649 941
e 650 719
e 652 987
e 652 825
e 654 717
e 654 814
e 656 781
e 656 993
e 657 990
e 657 935
e 659 802
e 659 856
e 659 966
e 662 764
e 663 710
e 663 753
e 663 676
e 666 828
e 667 833
e 668 940
e 668 704
e 669 822
e 669 914
e 670 721
e 670 899
e 671 889
e 672 736
e 672 917
e 673 870
e 673 847
e 673 905
e 675 781
e 675 840
e 677 999
e 677 844
e 677 864
e 679 756
e 680 848
e 682 977
e 682 750
e 683 779
e 683 864
e 684 735
e 686 767
e 686 867
e 686 753
e 687 759
e 687 753
e 689 969
e 689 894
e 690 755
e 693 898
e 693 1000
e 693 919
e 695 915
e 695 701
e 695 838
e 696 840
e 696 872
e 697 930
e 698 899
e 700 859
e 700 710
e 701 811
e 702 935
e 702 900
e 703 893
e 704 858
e 704 859
e 705 879
e 705 829
e 706 822
e 706 801
e 708 968
e 708 954
e 709 751
e 709 781
e 709 765
e 710 925
e 711 816
e 711 988
e 714 914
e 715 812
e 715 775
e 716 994
e 717 737
e 717 841
e 719 977
e 719 868
e 719 784
e 719 945
e 720 812
e 721 904
e 721 945
e 722 745
e 724 841
e 724 785
e 724 967
e 724 822
e 725 754
e 729 755
e 730 818
e 731 925
e 731 811
e 733 865
e 740 870
e 742 866
e 743 839
e 744 784
e 744 835
e 744 924
e 747 878
e 747 867
e 750 784
e 752 1000
e 752 904
e 752 814
e 752 994
e 754 844
e 754 940
e 754 950
e 756 929
e 759 862
e 760 929
e 762 767
e 762 924
e 763 908
e 765 969
e 767 842
e 768 984
e 769 971
e 770 963
e 771 791
e 772 817
e 773 918
e 773 911
e 775 865
e 776 812
e 777 940
e 778 865
e 779 873
e 780 918
e 781 962
e 792 983
e 792 987
e 792 916
e 793 840
e 794 993
e 794 839
e 796 810
e 796 799
e 799 801
e 799 895
e 799 893
e 800 920
e 801 996
e 802 826
e 806 966
e 806 990
e 810 928
e 810 963
e 811 853
e 811 990
e 812 862
e 813 977
e 814 878
e 814 928
e 814 829
e 815 917
e 820 901
e 820 980
e 821 904
e 822 996
e 824 868
e 825 833
e 826 942
e 829 991
e 830 997
e 831 852
e 834 893
e 834 974
e 835 856
e 839 955
e 841 994
e 842 866
e 845 929
e 848 977
e 848 905
e 848 942
e 848 857
e 853 916
e 855 942
e 855 880
e 859 914
e 871 930
e 872 916
e 872 917
e 873 938
e 879 909
e 880 912
e 880 941
e 881 999
e 882 986
e 882 987
e 885 917
e 885 994
e 888 996
e 892 935
e 892 898
e 893 984
e 899 901
e 901 908
e 901 958
e 903 905
e 906 919
e 907 931
e 910 911
e 915 963
e 916 946
e 925 941
e 932 980
e 934 950
e 935 952
e 939 949
e 944 948
e 945 948
e 946 959
e 949 966
e 949 980
e 954 986
e 958 994
e 988 991
