txt_Ins/graph-1000-324.txt
n 1000
e 1 562
e 1 597
e 1 581
e 1 38
e 1 465
e 2 815
e 2 507
e 2 33
e 2 412
e 3 236
e 3 870
e 3 179
e 3 36
e 3 836
e 3 556
e 4 489
e 4 927
e 4 792
e 4 832
e 4 529
e 4 600
e 4 568
e 4 70
e 4 750
e 5 412
e 5 401
e 5 347
e 5 999
e 5 509
e 6 193
e 6 96
e 6 255
e 6 698
e 7 738
e 7 496
e 7 253
e 7 672
e 7 866
e 7 200
e 7 852
e 8 339
e 8 25
e 8 744
e 8 74
e 8 114
e 8 869
e 8 332
e 8 583
e 9 956
e 9 933
e 9 436
e 9 181
e 9 881
e 10 379
e 10 871
e 10 551
e 10 236
e 11 360
e 11 454
e 11 281
e 11 992
e 11 620
e 12 468
e 12 823
e 12 393
e 12 774
e 12 455
e 13 422
e 13 413
e 13 310
e 13 522
e 13 125
e 13 533
e 13 564
e 13 138
e 15 854
e 15 82
e 15 791
e 15 25
e 16 993
e 16 362
e 16 494
e 16 58
e 16 547
e 16 725
e 16 791
e 17 598
e 17 461
e 17 388
e 17 53
e 17 672
e 17 433
e 18 777
e 18 464
e 18 559
e 18 835
e 18 910
e 21 431
e 21 576
e 21 854
e 21 567
e 21 537
e 21 956
e 21 405
e 22 320
e 22 698
e 22 552
e 23 50
e 23 787
e 23 162
e 24 606
e 24 457
e 24 212
e 24 310
e 24 471
e 25 739
e 25 954
e 26 218
e 26 219
e 26 241
e 28 328
e 28 529
e 28 649
e 28 829
e 28 42
e 29 685
e 29 148
e 29 315
e 30 533
e 30 478
e 30 148
e 32 961
e 32 724
e 32 734
e 32 738
e 33 665
e 33 973
e 33 961
e 36 372
e 36 329
e 36 938
e 36 899
e 36 259
e 36 940
e 36 143
e 36 730
e 37 236
e 37 384
e 37 663
e 37 689
e 37 993
e 38 715
e 38 434
e 38 111
e 41 650
e 41 851
e 41 634
e 42 821
e 42 721
e 42 345
e 42 547
e 42 521
e 42 421
e 42 114
e 42 927
e 42 482
e 42 425
e 43 245
e 43 162
e 43 310
e 43 900
e 43 332
e 43 719
e 44 547
e 44 307
e 44 593
e 44 347
e 44 204
e 45 206
e 45 902
e 45 95
e 45 814
e 45 269
e 45 367
e 47 766
e 47 937
e 47 801
e 47 552
e 47 917
e 47 413
e 48 355
e 48 563
e 48 486
e 48 846
e 48 394
e 48 396
e 48 926
e 48 719
e 49 349
e 49 149
e 49 505
e 49 722
e 49 805
e 50 143
e 50 436
e 50 264
e 51 347
e 51 817
e 51 608
e 51 90
e 51 327
e 53 562
e 53 145
e 53 941
e 53 763
e 53 801
e 53 80
e 53 267
e 53 683
e 53 63
e 53 240
e 55 466
e 55 181
e 55 941
e 55 91
e 55 616
e 55 484
e 56 662
e 56 852
e 56 318
e 56 201
e 57 496
e 57 741
e 57 429
e 57 180
e 57 566
e 58 560
e 58 929
e 58 623
e 58 453
e 58 190
e 59 971
e 59 345
e 59 370
e 59 744
e 60 67
e 60 239
e 60 891
e 62 166
e 62 937
e 62 992
e 63 768
e 63 844
e 63 901
e 65 182
e 65 854
e 65 206
e 65 253
e 65 393
e 65 434
e 66 444
e 66 341
e 66 80
e 67 894
e 67 570
e 67 196
e 67 90
e 67 199
e 67 762
e 68 426
e 68 919
e 68 206
e 68 269
e 69 786
e 69 974
e 69 609
e 69 568
e 70 786
e 70 163
e 71 667
e 71 870
e 71 280
e 71 550
e 72 240
e 72 854
e 72 779
e 73 82
e 73 420
e 73 754
e 74 559
e 74 239
e 74 990
e 76 318
e 76 335
e 76 363
e 76 592
e 77 943
e 77 834
e 77 753
e 77 541
e 77 298
e 78 682
e 78 610
e 78 866
e 78 349
e 80 830
e 80 304
e 80 397
e 80 354
e 81 752
e 81 399
e 81 365
e 82 385
e 82 503
e 82 179
e 83 180
e 83 817
e 83 735
e 84 151
e 84 801
e 84 559
e 84 760
e 84 840
e 84 204
e 86 473
e 86 603
e 86 913
e 86 646
e 87 398
e 87 754
e 87 118
e 88 915
e 88 280
e 88 345
e 88 388
e 88 905
e 88 577
e 88 551
e 89 389
e 89 528
e 89 435
e 89 805
e 89 924
e 89 620
e 90 984
e 90 719
e 90 840
e 91 797
e 91 528
e 91 782
e 92 675
e 92 296
e 92 994
e 94 170
e 94 762
e 94 132
e 94 440
e 94 940
e 95 401
e 95 824
e 95 219
e 96 227
e 96 788
e 96 641
e 96 887
e 96 356
e 96 709
e 96 461
e 96 239
e 97 455
e 97 878
e 97 622
e 97 207
e 97 823
e 98 639
e 98 604
e 98 339
e 98 140
e 98 255
e 98 136
e 98 788
e 98 682
e 98 428
e 99 192
e 99 570
e 99 524
e 100 328
e 100 469
e 100 335
e 100 464
e 100 364
e 100 708
e 101 472
e 101 208
e 101 413
e 102 893
e 102 987
e 102 345
e 103 142
e 103 179
e 103 746
e 103 328
e 104 995
e 104 925
e 104 855
e 104 462
e 105 956
e 105 509
e 105 815
e 105 779
e 106 249
e 106 645
e 106 752
e 108 327
e 108 758
e 108 184
e 108 672
e 108 381
e 108 515
e 110 734
e 110 389
e 110 562
e 110 805
e 111 864
e 111 138
e 111 488
e 114 277
e 114 939
e 114 556
e 114 948
e 114 500
e 114 239
e 115 137
e 115 408
e 115 188
e 115 308
e 116 581
e 116 586
e 116 797
e 116 312
e 117 993
e 117 295
e 117 997
e 118 734
e 118 829
e 118 457
e 118 722
e 118 651
e 120 506
e 120 505
e 120 387
e 120 947
e 120 515
e 121 135
e 121 714
e 121 762
e 121 192
e 121 463
e 123 180
e 123 458
e 123 867
e 123 873
e 125 252
e 125 463
e 125 906
e 125 911
e 125 856
e 127 538
e 127 136
e 127 184
e 127 305
e 127 146
e 131 522
e 131 554
e 131 415
e 131 974
e 131 698
e 131 259
e 132 581
e 132 138
e 132 629
e 132 900
e 132 871
e 132 462
e 133 636
e 133 698
e 133 704
e 133 629
e 133 723
e 133 143
e 134 579
e 134 939
e 134 634
e 135 939
e 135 741
e 135 370
e 136 498
e 137 287
e 137 865
e 137 174
e 137 625
e 137 442
e 138 575
e 140 614
e 140 355
e 140 296
e 140 598
e 140 409
e 140 701
e 141 490
e 141 754
e 141 967
e 142 463
e 142 557
e 143 709
e 143 280
e 143 377
e 143 871
e 143 612
e 143 708
e 143 714
e 143 888
e 144 579
e 144 413
e 144 819
e 144 750
e 145 254
e 145 580
e 145 814
e 145 510
e 145 686
e 145 401
e 145 333
e 146 307
e 146 679
e 146 429
e 146 877
e 148 390
e 149 694
e 149 835
e 149 618
e 149 879
e 149 176
e 151 592
e 151 567
e 151 405
e 151 353
e 151 177
e 151 421
e 155 474
e 155 611
e 155 928
e 155 234
e 156 956
e 156 320
e 156 828
e 156 556
e 157 257
e 157 689
e 157 927
e 158 901
e 158 168
e 158 577
e 158 926
e 158 683
e 159 231
e 159 760
e 159 922
e 160 306
e 160 867
e 160 759
e 160 499
e 160 385
e 160 732
e 160 660
e 161 354
e 161 550
e 161 929
e 162 594
e 162 857
e 162 376
e 162 482
e 163 166
e 163 462
e 163 517
e 163 983
e 163 698
e 165 763
e 165 320
e 165 656
e 165 701
e 165 476
e 166 170
e 166 809
e 166 741
e 166 840
e 168 675
e 168 576
e 168 870
e 168 483
e 168 767
e 169 987
e 169 878
e 169 982
e 169 608
e 169 985
e 170 729
e 170 389
e 170 413
e 170 833
e 170 577
e 170 786
e 170 965
e 173 769
e 173 863
e 173 519
e 173 539
e 174 695
e 174 255
e 175 333
e 175 877
e 175 660
e 176 513
e 176 644
e 176 182
e 177 239
e 177 753
e 177 435
e 178 299
e 178 755
e 178 984
e 178 681
e 178 376
e 179 793
e 179 431
e 179 373
e 180 816
e 180 805
e 180 492
e 180 941
e 180 556
e 180 790
e 181 870
e 181 967
e 181 274
e 182 735
e 182 421
e 182 538
e 182 592
e 183 294
e 183 627
e 183 832
e 183 742
e 183 238
e 184 908
e 184 792
e 184 579
e 184 847
e 187 752
e 187 378
e 187 409
e 188 418
e 188 760
e 188 403
e 189 792
e 189 707
e 189 776
e 190 445
e 190 370
e 191 423
e 191 873
e 191 292
e 192 238
e 192 486
e 192 511
e 192 359
e 192 834
e 192 986
e 192 278
e 192 434
e 193 937
e 193 303
e 193 966
e 193 240
e 194 228
e 194 666
e 194 779
e 196 546
e 196 777
e 196 900
e 197 605
e 197 720
e 197 615
e 198 742
e 198 200
e 198 317
e 199 962
e 199 501
e 200 722
e 200 291
e 200 685
e 200 278
e 200 365
e 200 801
e 201 247
e 201 692
e 201 974
e 203 697
e 203 744
e 203 724
e 203 948
e 204 462
e 204 674
e 204 277
e 204 936
e 204 786
e 205 439
e 205 604
e 205 881
e 205 836
e 205 335
e 206 528
e 207 213
e 207 263
e 208 924
e 208 387
e 208 260
e 208 249
e 209 519
e 209 514
e 209 663
e 209 985
e 212 894
e 212 752
e 212 218
e 212 709
e 212 644
e 212 468
e 212 993
e 213 617
e 213 229
e 213 633
e 213 954
e 216 778
e 216 998
e 216 897
e 216 513
e 217 982
e 217 253
e 217 765
e 218 486
e 218 894
e 218 827
e 219 269
e 220 614
e 220 719
e 220 945
e 220 560
e 222 732
e 222 966
e 222 997
e 223 661
e 223 617
e 223 388
e 223 281
e 223 437
e 223 441
e 227 976
e 227 324
e 227 993
e 227 568
e 228 307
e 228 384
e 229 633
e 229 698
e 231 564
e 231 892
e 231 809
e 233 765
e 233 872
e 233 426
e 234 397
e 234 656
e 236 880
e 236 264
e 236 505
e 236 294
e 237 385
e 237 512
e 237 861
e 238 719
e 238 387
e 239 259
e 239 961
e 239 716
e 239 798
e 240 653
e 240 466
e 240 827
e 240 650
e 240 774
e 240 547
e 241 385
e 241 775
e 241 333
e 242 575
e 242 417
e 242 329
e 245 823
e 245 260
e 246 470
e 246 482
e 246 413
e 247 390
e 247 833
e 247 577
e 247 393
e 248 983
e 248 884
e 248 328
e 248 623
e 248 836
e 249 604
e 249 509
e 249 990
e 252 351
e 252 637
e 253 655
e 253 256
e 254 364
e 254 881
e 254 742
e 256 753
e 256 797
e 256 276
e 256 511
e 257 550
e 257 570
e 257 724
e 257 540
e 257 966
e 257 503
e 258 700
e 258 970
e 258 480
e 259 415
e 259 558
e 260 365
e 260 933
e 260 934
e 260 563
e 260 779
e 260 976
e 261 877
e 261 887
e 261 597
e 261 719
e 262 994
e 262 399
e 262 367
e 262 396
e 263 761
e 263 422
e 263 301
e 264 539
e 264 476
e 264 819
e 264 271
e 266 909
e 266 699
e 266 397
e 267 453
e 267 765
e 267 723
e 269 683
e 269 866
e 269 641
e 270 710
e 270 939
e 270 811
e 270 314
e 270 752
e 270 605
e 271 338
e 271 555
e 273 292
e 273 742
e 273 497
e 273 304
e 274 568
e 274 922
e 274 572
e 276 429
e 276 364
e 276 431
e 276 495
e 276 764
e 276 794
e 276 626
e 276 317
e 277 661
e 277 835
e 277 798
e 278 489
e 278 971
e 278 881
e 278 596
e 278 783
e 280 602
e 280 374
e 280 759
e 281 830
e 281 331
e 286 503
e 286 427
e 286 913
e 286 513
e 287 372
e 287 327
e 287 384
e 287 541
e 287 451
e 287 360
e 287 348
e 289 508
e 289 349
e 289 398
e 291 292
e 291 758
e 291 416
e 291 625
e 292 365
e 292 503
e 292 683
e 294 367
e 295 907
e 295 792
e 295 439
e 295 546
e 296 663
e 296 772
e 298 440
e 298 501
e 299 490
e 299 937
e 301 887
e 301 336
e 301 378
e 301 389
e 303 489
e 303 870
e 304 498
e 304 306
e 304 682
e 305 373
e 305 824
e 305 603
e 306 580
e 306 918
e 306 626
e 306 431
e 306 564
e 307 853
e 307 470
e 307 861
e 307 625
e 308 865
e 308 519
e 308 743
e 308 422
e 308 744
e 308 435
e 309 512
e 309 996
e 309 966
e 309 597
e 309 524
e 310 349
e 310 433
e 310 547
e 310 771
e 312 584
e 312 784
e 312 839
e 312 967
e 313 906
e 313 507
e 313 734
e 313 686
e 314 646
e 314 649
e 315 421
e 315 699
e 315 592
e 317 384
e 318 905
e 318 640
e 318 481
e 322 603
e 322 843
e 322 922
e 323 820
e 323 464
e 323 928
e 324 837
e 324 734
e 324 849
e 324 354
e 327 653
e 327 827
e 327 497
e 328 558
e 329 589
e 329 782
e 331 839
e 331 455
e 332 666
e 332 982
e 332 500
e 333 466
e 333 403
e 333 593
e 333 993
e 333 369
e 333 633
e 335 979
e 335 495
e 335 689
e 335 849
e 336 465
e 336 716
e 337 470
e 337 502
e 337 865
e 337 777
e 338 865
e 338 998
e 339 363
e 339 604
e 339 897
e 339 771
e 341 931
e 341 926
e 343 943
e 343 936
e 343 556
e 345 552
e 345 728
e 345 947
e 345 406
e 345 622
e 345 663
e 345 786
e 345 828
e 345 855
e 347 713
e 347 667
e 348 913
e 348 908
e 348 742
e 349 743
e 349 448
e 349 825
e 351 498
e 351 508
e 353 863
e 353 931
e 354 914
e 354 587
e 355 683
e 355 798
e 355 629
e 356 897
e 356 749
e 356 928
e 359 774
e 359 723
e 359 510
e 360 454
e 360 371
e 360 841
e 360 992
e 360 492
e 362 574
e 362 617
e 362 494
e 363 925
e 363 675
e 363 844
e 364 497
e 364 703
e 365 870
e 367 460
e 367 965
e 368 617
e 368 472
e 368 710
e 368 933
e 368 779
e 369 798
e 369 416
e 371 560
e 371 772
e 371 645
e 371 819
e 372 755
e 372 957
e 372 973
e 373 580
e 373 398
e 374 488
e 374 581
e 374 863
e 374 847
e 376 559
e 376 976
e 376 710
e 376 660
e 377 997
e 377 409
e 377 427
e 378 911
e 378 655
e 379 754
e 379 501
e 379 451
e 379 423
e 381 794
e 381 708
e 381 951
e 384 835
e 384 774
e 385 996
e 385 604
e 385 671
e 387 671
e 387 878
e 388 873
e 388 913
e 389 922
e 389 694
e 389 930
e 390 606
e 390 585
e 390 666
e 392 500
e 392 973
e 392 618
e 394 841
e 394 810
e 396 522
e 399 598
e 399 441
e 401 724
e 401 451
e 401 738
e 403 416
e 403 754
e 403 894
e 403 835
e 403 592
e 405 662
e 405 558
e 405 907
e 405 917
e 406 583
e 406 691
e 406 425
e 406 508
e 406 446
e 406 705
e 407 941
e 407 743
e 407 637
e 407 990
e 408 958
e 408 974
e 408 755
e 409 423
e 409 649
e 409 922
e 412 483
e 412 719
e 413 688
e 413 547
e 413 692
e 415 610
e 416 511
e 416 776
e 416 700
e 416 774
e 417 473
e 417 627
e 418 451
e 418 703
e 418 427
e 420 644
e 420 445
e 421 881
e 421 655
e 421 696
e 421 587
e 422 766
e 422 951
e 422 866
e 423 625
e 423 528
e 425 636
e 426 971
e 426 758
e 426 736
e 427 769
e 427 791
e 427 510
e 428 844
e 428 457
e 428 948
e 428 725
e 428 553
e 429 888
e 431 541
e 433 645
e 433 782
e 433 984
e 433 821
e 434 922
e 434 519
e 434 721
e 434 812
e 435 892
e 435 607
e 436 780
e 436 524
e 436 636
e 437 572
e 437 915
e 437 865
e 437 909
e 439 994
e 439 728
e 439 553
e 440 503
e 440 948
e 440 805
e 441 603
e 441 442
e 441 830
e 441 702
e 442 916
e 442 669
e 444 499
e 444 663
e 444 639
e 444 651
e 444 987
e 445 679
e 445 454
e 446 715
e 446 558
e 446 965
e 446 656
e 446 938
e 446 474
e 446 852
e 447 830
e 447 846
e 447 456
e 447 993
e 447 805
e 448 671
e 448 568
e 448 915
e 448 604
e 449 636
e 449 549
e 449 675
e 449 552
e 449 904
e 449 591
e 451 824
e 451 915
e 451 497
e 451 931
e 451 583
e 451 646
e 451 918
e 451 902
e 451 822
e 453 617
e 453 774
e 453 792
e 454 879
e 454 897
e 455 636
e 455 670
e 456 958
e 456 546
e 458 622
e 458 518
e 460 469
e 460 547
e 461 998
e 461 719
e 461 753
e 463 476
e 463 691
e 465 791
e 465 696
e 465 970
e 466 923
e 466 553
e 466 504
e 466 929
e 466 970
e 468 824
e 468 641
e 468 669
e 468 837
e 468 863
e 468 576
e 469 855
e 469 967
e 469 559
e 470 723
e 470 787
e 470 473
e 471 714
e 471 755
e 472 956
e 472 743
e 472 474
e 472 658
e 472 697
e 473 853
e 473 480
e 476 855
e 478 801
e 478 967
e 478 508
e 478 499
e 478 734
e 480 992
e 481 839
e 481 841
e 482 770
e 482 735
e 483 812
e 483 925
e 484 512
e 484 641
e 486 999
e 486 605
e 488 552
e 488 691
e 489 668
e 489 852
e 490 786
e 490 979
e 492 585
e 493 722
e 493 841
e 493 941
e 493 720
e 494 800
e 495 729
e 496 754
e 496 649
e 497 509
e 497 743
e 498 940
e 501 621
e 502 598
e 502 812
e 502 612
e 502 822
e 504 797
e 504 616
e 504 962
e 504 866
e 504 692
e 504 901
e 505 674
e 505 694
e 505 663
e 506 790
e 506 721
e 507 811
e 507 928
e 508 626
e 508 989
e 508 903
e 508 899
e 509 617
e 509 784
e 510 770
e 510 580
e 510 769
e 510 815
e 510 666
e 510 961
e 510 840
e 511 909
e 511 996
e 511 930
e 512 707
e 513 742
e 513 999
e 513 791
e 514 709
e 514 557
e 515 821
e 515 646
e 515 979
e 515 593
e 517 670
e 517 949
e 517 856
e 518 801
e 518 678
e 521 857
e 521 742
e 524 853
e 524 992
e 527 836
e 527 794
e 527 780
e 527 694
e 527 902
e 527 640
e 527 820
e 527 627
e 527 743
e 528 812
e 528 937
e 529 762
e 533 791
e 533 919
e 537 836
e 537 774
e 538 989
e 538 780
e 539 617
e 539 648
e 539 822
e 540 702
e 540 821
e 540 870
e 546 570
e 549 953
e 549 936
e 551 948
e 551 814
e 552 629
e 552 828
e 552 931
e 553 705
e 553 621
e 553 787
e 553 651
e 554 953
e 554 864
e 555 949
e 555 800
e 556 753
e 557 936
e 557 853
e 558 641
e 558 776
e 558 906
e 559 791
e 559 966
e 559 830
e 559 605
e 560 887
e 560 881
e 562 968
e 562 713
e 562 864
e 563 580
e 566 769
e 566 798
e 566 799
e 567 816
e 568 713
e 572 751
e 572 702
e 572 749
e 574 730
e 574 911
e 575 762
e 576 719
e 577 982
e 577 753
e 577 641
e 577 678
e 578 844
e 578 941
e 578 833
e 578 618
e 579 944
e 580 615
e 580 865
e 584 979
e 584 909
e 584 675
e 585 621
e 586 672
e 586 614
e 587 970
e 589 983
e 589 938
e 589 597
e 591 788
e 591 662
e 592 867
e 593 880
e 594 902
e 594 913
e 596 685
e 596 725
e 596 665
e 596 898
e 597 600
e 597 979
e 597 967
e 598 658
e 598 767
e 600 608
e 602 718
e 602 735
e 603 609
e 606 837
e 606 962
e 607 734
e 607 778
e 608 799
e 608 609
e 609 735
e 609 787
e 610 743
e 611 644
e 611 718
e 611 878
e 611 746
e 612 762
e 615 879
e 616 736
e 617 834
e 617 949
e 617 775
e 617 914
e 618 658
e 618 849
e 620 651
e 620 916
e 620 728
e 620 810
e 621 880
e 621 762
e 621 775
e 621 649
e 622 905
e 623 754
e 625 636
e 625 994
e 627 650
e 627 778
e 627 853
e 629 851
e 629 877
e 629 974
e 629 795
e 630 758
e 630 849
e 630 839
e 634 739
e 636 651
e 637 864
e 639 665
e 639 893
e 640 989
e 640 671
e 640 770
e 641 900
e 641 738
e 641 774
e 641 930
e 644 768
e 645 869
e 646 922
e 646 997
e 646 736
e 648 820
e 648 940
e 649 718
e 651 986
e 651 824
e 653 716
e 653 813
e 655 780
e 655 992
e 656 989
e 656 934
e 658 801
e 658 855
e 658 965
e 661 763
e 662 709
e 662 752
e 662 675
e 665 827
e 666 832
e 667 939
e 667 703
e 668 821
e 668 913
e 669 720
e 669 898
e 670 888
e 671 735
e 671 916
e 672 869
e 672 846
e 672 904
e 674 780
e 674 839
e 676 998
e 676 843
e 676 863
e 678 755
e 679 847
e 681 976
e 681 749
e 682 778
e 682 863
e 683 734
e 685 766
e 685 866
e 685 752
e 686 758
e 686 752
e 688 968
e 688 893
e 689 754
e 692 897
e 692 999
e 692 918
e 694 914
e 694 700
e 694 837
e 695 839
e 695 871
e 696 929
e 697 898
e 699 858
e 699 709
e 700 810
e 701 934
e 701 899
e 702 892
e 703 857
e 703 858
e 704 878
e 704 828
e 705 821
e 705 800
e 707 967
e 707 953
e 708 750
e 708 780
e 708 764
e 709 924
e 710 815
e 710 987
e 713 913
e 714 811
e 714 774
e 715 993
e 716 736
e 716 840
e 718 976
e 718 867
e 718 783
e 718 944
e 719 811
e 720 903
e 720 944
e 721 744
e 723 840
e 723 784
e 723 966
e 723 821
e 724 753
e 728 754
e 729 817
e 730 924
e 730 810
e 732 864
e 739 869
e 741 865
e 742 838
e 743 783
e 743 834
e 743 923
e 746 877
e 746 866
e 749 783
e 751 999
e 751 903
e 751 813
e 751 993
e 753 843
e 753 939
e 753 949
e 755 928
e 758 861
e 759 928
e 761 766
e 761 923
e 762 907
e 764 968
e 766 841
e 767 983
e 768 970
e 769 962
e 770 790
e 771 816
e 772 917
e 772 910
e 774 864
e 775 811
e 776 939
e 777 864
e 778 872
e 779 917
e 780 961
e 791 982
e 791 986
e 791 915
e 792 839
e 793 992
e 793 838
e 795 809
e 795 798
e 798 800
e 798 894
e 798 892
e 799 919
e 800 995
e 801 825
e 805 965
e 805 989
e 809 927
e 809 962
e 810 852
e 810 989
e 811 861
e 812 976
e 813 877
e 813 927
e 813 828
e 814 916
e 819 900
e 819 979
e 820 903
e 821 995
e 823 867
e 824 832
e 825 941
e 828 990
e 829 996
e 830 851
e 833 892
e 833 973
e 834 855
e 838 954
e 840 993
e 841 865
e 844 928
e 847 976
e 847 904
e 847 941
e 847 856
e 852 915
e 854 941
e 854 879
e 858 913
e 870 929
e 871 915
e 871 916
e 872 937
e 878 908
e 879 911
e 879 940
e 880 998
e 881 985
e 881 986
e 884 916
e 884 993
e 887 995
e 891 934
e 891 897
e 892 983
e 898 900
e 900 907
e 900 957
e 902 904
e 905 918
e 906 930
e 909 910
e 914 962
e 915 945
e 924 940
e 931 979
e 933 949
e 934 951
e 938 948
e 943 947
e 944 947
e 945 958
e 948 965
e 948 979
e 953 985
e 957 993
e 987 990
